33D32945 STP File, STP Format Version 1.0

SECTION Comment
Name    "i080-332"
Creator "Cees Duin"
Remark  "Incidence graph"
END

SECTION Graph
Nodes 80
Edges 160
E 1 8 304
E 1 35 202
E 1 45 214
E 1 69 199
E 1 72 205
E 1 75 193
E 1 77 197
E 2 17 296
E 2 28 197
E 3 30 191
E 3 60 205
E 3 70 203
E 4 26 200
E 4 29 203
E 4 53 206
E 4 71 208
E 5 68 207
E 6 16 301
E 6 30 208
E 6 42 195
E 6 50 202
E 6 62 201
E 6 66 198
E 6 78 198
E 7 10 307
E 7 18 297
E 7 21 200
E 7 59 197
E 8 34 203
E 8 64 203
E 9 32 206
E 9 41 206
E 9 49 200
E 9 80 197
E 10 17 301
E 10 75 208
E 11 20 295
E 11 37 204
E 12 37 205
E 12 49 201
E 12 77 195
E 13 14 300
E 13 39 195
E 13 43 205
E 13 53 199
E 13 73 201
E 14 45 197
E 14 47 193
E 14 73 209
E 15 50 202
E 15 53 214
E 16 21 203
E 16 28 203
E 16 32 195
E 16 40 201
E 16 45 195
E 16 54 198
E 17 72 197
E 18 19 295
E 18 51 202
E 18 60 206
E 18 64 202
E 19 23 191
E 19 46 191
E 19 76 194
E 19 77 195
E 20 27 202
E 20 31 197
E 20 41 203
E 20 52 198
E 20 55 205
E 20 80 199
E 21 56 102
E 22 27 103
E 22 34 95
E 24 38 94
E 24 40 104
E 24 45 100
E 24 52 95
E 24 55 105
E 25 28 100
E 25 40 100
E 25 61 106
E 25 66 93
E 25 75 106
E 26 34 98
E 26 36 98
E 26 44 102
E 26 54 101
E 26 73 100
E 27 53 97
E 28 63 103
E 29 44 96
E 29 45 106
E 29 64 95
E 29 71 99
E 30 56 97
E 30 74 92
E 31 36 109
E 31 50 90
E 31 62 93
E 31 78 92
E 32 34 99
E 33 70 96
E 34 74 103
E 34 76 103
E 35 77 99
E 36 40 100
E 36 49 103
E 36 78 97
E 37 74 95
E 37 79 107
E 38 42 99
E 38 53 108
E 38 63 101
E 38 77 108
E 39 72 96
E 39 77 95
E 40 78 102
E 41 71 102
E 41 72 103
E 42 64 97
E 42 67 97
E 44 45 99
E 45 77 93
E 46 60 109
E 47 53 103
E 47 57 99
E 47 69 100
E 48 68 97
E 49 56 99
E 49 59 91
E 50 73 107
E 51 55 105
E 52 64 95
E 52 71 97
E 52 75 93
E 53 72 105
E 54 79 99
E 55 74 99
E 57 80 93
E 58 63 99
E 59 67 100
E 60 74 104
E 61 64 93
E 61 72 101
E 62 65 102
E 62 71 99
E 62 77 103
E 63 69 97
E 67 79 98
E 68 69 101
E 68 74 108
E 69 76 97
E 69 79 105
E 71 72 96
E 72 74 99
E 72 76 100
E 72 80 93
E 75 78 96
END

SECTION Terminals
Terminals 20
T 1
T 2
T 3
T 4
T 5
T 6
T 7
T 8
T 9
T 10
T 11
T 12
T 13
T 14
T 15
T 16
T 17
T 18
T 19
T 20
END

EOF
